<number of tasks>
45

<cycle time>
69

<task times>
1 9
2 9
3 10
4 10
5 17
6 17
7 13
8 13
9 20
10 20
11 10
12 11
13 6
14 22
15 11
16 19
17 12
18 3
19 7
20 4
21 55
22 14
23 27
24 29
25 26
26 6
27 5
28 24
29 4
30 5
31 7
32 4
33 15
34 3
35 7
36 9
37 4
38 7
39 5
40 4
41 21
42 12
43 6
44 5
45 5

<precedence relations>
1,3
1,7
2,4
2,8
3,5
4,6
5,9
6,10
7,9
7,14
8,10
8,14
9,41
10,41
11,13
12,13
12,37
13,14
13,15
14,17
14,25
14,29
14,30
14,31
14,32
15,16
15,18
15,23
15,24
16,19
17,26
17,27
18,19
19,20
19,33
20,21
21,22
22,28
23,33
24,33
25,26
26,38
27,28
27,33
28,38
29,41
30,41
31,41
32,41
33,34
33,35
33,36
34,38
35,40
36,38
37,43
38,40
39,41
40,41
41,42
42,44
42,45

<setup times forward>
1,2:3
1,3:2
1,4:1
1,6:2
1,8:3
1,10:2
1,11:4
1,12:1
1,13:1
1,15:5
1,16:4
1,18:1
1,19:1
1,20:2
1,21:2
1,22:3
1,23:2
1,24:1
1,37:4
1,39:1
2,1:3
2,3:5
2,4:2
2,5:2
2,7:3
2,8:6
2,9:1
2,11:7
2,12:4
2,13:2
2,15:8
2,16:7
2,18:4
2,19:2
2,20:1
2,21:1
2,22:6
2,23:1
2,24:4
2,37:7
2,39:4
2,43:3
3,2:5
3,4:3
3,5:3
3,7:2
3,8:1
3,11:2
3,12:1
3,13:3
3,14:4
3,15:3
3,16:2
3,17:5
3,18:1
3,19:3
3,20:4
3,21:4
3,22:1
3,23:4
3,24:1
3,26:2
3,27:3
3,28:3
3,29:2
3,30:2
3,31:4
3,32:5
3,33:2
3,34:2
3,35:3
3,36:3
3,37:2
3,38:5
3,39:1
3,40:2
3,43:2
4,1:1
4,3:3
4,6:3
4,7:1
4,8:4
4,9:1
4,11:5
4,12:2
4,14:1
4,15:6
4,16:5
4,17:2
4,18:2
4,20:1
4,21:1
4,22:4
4,23:1
4,24:2
4,25:3
4,26:5
4,27:6
4,29:5
4,30:1
4,31:1
4,32:2
4,33:1
4,34:1
4,35:6
4,37:5
4,38:2
4,39:2
4,40:5
4,43:1
5,2:2
5,6:3
5,7:1
5,8:4
5,9:1
5,10:3
5,11:5
5,12:2
5,14:1
5,15:6
5,16:5
5,17:2
5,18:2
5,20:1
5,21:1
5,22:4
5,23:1
5,24:2
5,25:3
5,26:5
5,27:6
5,29:5
5,30:1
5,31:1
5,32:2
5,33:1
5,34:1
5,35:6
5,37:5
5,38:2
5,39:2
5,40:5
5,43:1
6,1:2
6,5:3
6,7:2
6,8:1
6,9:4
6,11:2
6,12:1
6,13:3
6,14:4
6,15:3
6,16:2
6,17:5
6,18:1
6,19:3
6,20:4
6,21:4
6,22:1
6,23:4
6,24:1
6,26:2
6,27:3
6,28:3
6,29:2
6,30:2
6,31:4
6,32:5
6,33:2
6,34:2
6,35:3
6,36:3
6,37:2
6,38:5
6,39:1
6,40:2
6,43:2
7,2:3
7,3:2
7,4:1
7,5:1
7,6:2
7,8:3
7,9:2
7,10:2
7,11:4
7,12:1
7,13:1
7,14:2
7,15:5
7,16:4
7,18:1
7,19:1
7,20:2
7,21:2
7,22:3
7,23:2
7,24:1
7,37:4
7,39:1
8,1:3
8,3:1
8,4:4
8,5:4
8,6:1
8,7:3
8,9:5
8,10:1
8,11:1
8,12:2
8,13:4
8,14:5
8,15:2
8,16:1
8,18:2
8,19:4
8,20:5
8,21:5
8,23:5
8,24:2
8,37:1
8,39:2
8,43:3
9,2:1
9,4:1
9,6:4
9,8:5
9,10:4
9,11:6
9,12:3
9,13:1
9,15:7
9,16:6
9,17:1
9,18:3
9,19:1
9,22:5
9,24:3
9,25:4
9,26:6
9,27:7
9,28:1
9,29:6
9,30:2
9,32:1
9,33:2
9,34:2
9,35:7
9,36:1
9,37:6
9,38:1
9,39:3
9,40:6
9,41:6
9,43:2
10,1:2
10,5:3
10,7:2
10,9:4
10,11:2
10,12:1
10,13:3
10,14:4
10,15:3
10,16:2
10,17:5
10,18:1
10,19:3
10,20:4
10,21:4
10,22:1
10,23:4
10,24:1
10,26:2
10,27:3
10,28:3
10,29:2
10,30:2
10,31:4
10,32:5
10,33:2
10,34:2
10,35:3
10,36:3
10,37:2
10,38:5
10,39:1
10,40:2
10,41:2
10,43:2
11,1:4
11,2:7
11,3:2
11,4:5
11,5:5
11,6:2
11,7:4
11,8:1
11,9:6
11,10:2
11,12:3
11,13:5
11,39:3
11,43:4
12,1:1
12,2:4
12,3:1
12,4:2
12,5:2
12,6:1
12,7:1
12,8:2
12,9:3
12,10:1
12,11:3
12,13:2
12,37:3
13,1:1
13,2:2
13,3:3
13,6:3
13,7:1
13,8:4
13,9:1
13,10:3
13,14:1
13,15:6
13,37:5
13,39:2
13,43:1
14,3:4
14,4:1
14,5:1
14,6:4
14,10:4
14,15:7
14,16:6
14,17:1
14,18:3
14,19:1
14,22:5
14,24:3
14,25:4
14,29:6
14,30:2
14,32:1
14,37:6
14,39:3
14,43:2
15,1:5
15,2:8
15,3:3
15,4:6
15,5:6
15,6:3
15,7:5
15,8:2
15,9:7
15,10:3
15,14:7
15,16:1
15,17:8
15,18:4
15,23:7
15,24:4
15,25:3
15,26:1
15,29:1
15,30:5
15,31:7
15,32:8
15,37:1
15,39:4
15,43:5
16,1:4
16,2:7
16,3:2
16,4:5
16,5:5
16,6:2
16,7:4
16,8:1
16,9:6
16,10:2
16,14:6
16,17:7
16,18:3
16,19:5
16,23:6
16,24:3
16,25:2
16,27:1
16,30:4
16,31:6
16,32:7
16,39:3
16,43:4
17,3:5
17,4:2
17,5:2
17,6:5
17,9:1
17,10:5
17,15:8
17,16:7
17,18:4
17,19:2
17,20:1
17,21:1
17,22:6
17,23:1
17,24:4
17,25:5
17,26:7
17,27:8
17,29:7
17,30:3
17,31:1
17,37:7
17,39:4
17,43:3
18,1:1
18,2:4
18,3:1
18,4:2
18,5:2
18,6:1
18,7:1
18,8:2
18,9:3
18,10:1
18,14:3
18,16:3
18,17:4
18,19:2
18,23:3
18,25:1
18,26:3
18,27:4
18,29:3
18,30:1
18,31:3
18,32:4
18,37:3
18,43:1
19,1:1
19,2:2
19,3:3
19,6:3
19,7:1
19,8:4
19,9:1
19,10:3
19,14:1
19,17:2
19,20:1
19,23:1
19,24:2
19,25:3
19,26:5
19,27:6
19,29:5
19,30:1
19,31:1
19,32:2
19,33:1
19,37:5
19,39:2
19,43:1
20,1:2
20,2:1
20,3:4
20,4:1
20,5:1
20,6:4
20,7:2
20,8:5
20,10:4
20,17:1
20,24:3
20,25:4
20,26:6
20,27:7
20,29:6
20,30:2
20,32:1
20,33:2
20,34:2
20,35:7
20,36:1
20,37:6
20,39:3
20,43:2
21,1:2
21,2:1
21,3:4
21,4:1
21,5:1
21,6:4
21,7:2
21,8:5
21,10:4
21,17:1
21,22:5
21,24:3
21,25:4
21,26:6
21,27:7
21,29:6
21,30:2
21,32:1
21,33:2
21,34:2
21,35:7
21,36:1
21,37:6
21,39:3
21,43:2
22,1:3
22,2:6
22,3:1
22,4:4
22,5:4
22,6:1
22,7:3
22,9:5
22,10:1
22,14:5
22,17:6
22,23:5
22,24:2
22,25:1
22,26:1
22,27:2
22,28:4
22,29:1
22,30:3
22,31:5
22,32:6
22,33:3
22,34:3
22,35:2
22,36:4
22,37:1
22,39:2
22,43:3
23,1:2
23,2:1
23,3:4
23,4:1
23,5:1
23,6:4
23,7:2
23,8:5
23,10:4
23,16:6
23,17:1
23,18:3
23,19:1
23,22:5
23,24:3
23,25:4
23,26:6
23,27:7
23,28:1
23,29:6
23,30:2
23,32:1
23,33:2
23,37:6
23,39:3
23,43:2
24,1:1
24,2:4
24,3:1
24,4:2
24,5:2
24,6:1
24,7:1
24,8:2
24,9:3
24,10:1
24,14:3
24,16:3
24,17:4
24,19:2
24,20:3
24,21:3
24,22:2
24,23:3
24,25:1
24,26:3
24,27:4
24,28:2
24,29:3
24,30:1
24,31:3
24,32:4
24,33:1
24,37:3
24,43:1
25,4:3
25,5:3
25,9:4
25,15:3
25,16:2
25,17:5
25,18:1
25,19:3
25,20:4
25,21:4
25,22:1
25,23:4
25,24:1
25,26:2
25,27:3
25,28:3
25,29:2
25,30:2
25,31:4
25,32:5
25,33:2
25,34:2
25,35:3
25,36:3
25,37:2
25,39:1
25,43:2
26,3:2
26,4:5
26,5:5
26,6:2
26,9:6
26,10:2
26,15:1
26,18:3
26,19:5
26,20:6
26,21:6
26,22:1
26,23:6
26,24:3
26,27:1
26,28:5
26,30:4
26,31:6
26,32:7
26,33:4
26,34:4
26,35:1
26,36:5
26,38:7
26,39:3
26,43:4
27,3:3
27,4:6
27,5:6
27,6:3
27,9:7
27,10:3
27,16:1
27,18:4
27,19:6
27,20:7
27,21:7
27,22:2
27,23:7
27,24:4
27,25:3
27,26:1
27,28:6
27,29:1
27,30:5
27,31:7
27,32:8
27,33:5
27,37:1
27,39:4
27,43:5
28,3:3
28,6:3
28,9:1
28,10:3
28,23:1
28,24:2
28,25:3
28,26:5
28,29:5
28,30:1
28,31:1
28,32:2
28,33:1
28,34:1
28,35:6
28,37:5
28,38:2
28,39:2
28,43:1
29,3:2
29,4:5
29,5:5
29,6:2
29,9:6
29,10:2
29,15:1
29,17:7
29,18:3
29,19:5
29,20:6
29,21:6
29,22:1
29,23:6
29,24:3
29,25:2
29,27:1
29,28:5
29,30:4
29,31:6
29,32:7
29,33:4
29,34:4
29,35:1
29,36:5
29,38:7
29,39:3
29,43:4
30,3:2
30,4:1
30,5:1
30,6:2
30,9:2
30,10:2
30,15:5
30,16:4
30,17:3
30,18:1
30,19:1
30,20:2
30,21:2
30,22:3
30,23:2
30,24:1
30,25:2
30,26:4
30,27:5
30,28:1
30,29:4
30,31:2
30,32:3
30,35:5
30,36:1
30,37:4
30,38:3
30,39:1
30,40:4
30,41:4
31,3:4
31,4:1
31,5:1
31,6:4
31,10:4
31,15:7
31,16:6
31,17:1
31,18:3
31,19:1
31,22:5
31,24:3
31,25:4
31,26:6
31,27:7
31,28:1
31,29:6
31,30:2
31,32:1
31,33:2
31,34:2
31,35:7
31,36:1
31,37:6
31,38:1
31,39:3
31,40:6
31,41:6
31,43:2
32,3:5
32,4:2
32,5:2
32,6:5
32,9:1
32,10:5
32,15:8
32,16:7
32,18:4
32,19:2
32,20:1
32,21:1
32,22:6
32,23:1
32,24:4
32,25:5
32,26:7
32,27:8
32,28:2
32,29:7
32,30:3
32,31:1
32,33:3
32,34:3
32,35:8
32,36:2
32,37:7
32,39:4
32,40:7
32,41:7
32,43:3
33,3:2
33,4:1
33,5:1
33,6:2
33,9:2
33,10:2
33,20:2
33,21:2
33,22:3
33,25:2
33,26:4
33,28:1
33,29:4
33,31:2
33,32:3
33,35:5
33,36:1
33,37:4
33,39:1
34,3:2
34,4:1
34,5:1
34,6:2
34,9:2
34,10:2
34,20:2
34,21:2
34,22:3
34,25:2
34,26:4
34,28:1
34,29:4
34,31:2
34,32:3
34,35:5
34,36:1
34,37:4
34,38:3
34,39:1
35,3:3
35,4:6
35,5:6
35,6:3
35,9:7
35,10:3
35,20:7
35,21:7
35,22:2
35,25:3
35,26:1
35,28:6
35,29:1
35,30:5
35,31:7
35,32:8
35,34:5
35,36:6
35,37:1
35,38:8
35,39:4
35,40:1
35,43:5
36,3:3
36,6:3
36,9:1
36,10:3
36,20:1
36,21:1
36,22:4
36,25:3
36,26:5
36,29:5
36,30:1
36,31:1
36,32:2
36,34:1
36,35:6
36,37:5
36,38:2
36,39:2
36,43:1
37,1:4
37,2:7
37,3:2
37,4:5
37,5:5
37,6:2
37,7:4
37,8:1
37,9:6
37,10:2
37,13:5
37,14:6
37,15:1
37,17:7
37,18:3
37,19:5
37,20:6
37,21:6
37,22:1
37,23:6
37,24:3
37,25:2
37,27:1
37,28:5
37,30:4
37,31:6
37,32:7
37,33:4
37,34:4
37,35:1
37,36:5
37,38:7
37,39:3
37,42:1
37,43:4
37,44:3
37,45:2
38,3:5
38,4:2
38,5:2
38,6:5
38,9:1
38,10:5
38,29:7
38,30:3
38,31:1
38,35:8
38,37:7
38,39:4
38,40:7
38,43:3
39,1:1
39,2:4
39,3:1
39,4:2
39,5:2
39,6:1
39,7:1
39,8:2
39,9:3
39,10:1
39,11:3
39,13:2
39,14:3
39,15:4
39,16:3
39,17:4
39,19:2
39,20:3
39,21:3
39,22:2
39,23:3
39,25:1
39,26:3
39,27:4
39,28:2
39,29:3
39,30:1
39,31:3
39,32:4
39,33:1
39,34:1
39,35:4
39,36:2
39,37:3
39,38:4
39,40:3
39,41:3
39,43:1
40,3:2
40,4:5
40,5:5
40,6:2
40,9:6
40,10:2
40,30:4
40,31:6
40,32:7
40,39:3
40,43:4
41,42:1
41,43:4
42,37:1
42,43:5
42,44:4
42,45:3
43,2:3
43,3:2
43,4:1
43,5:1
43,6:2
43,8:3
43,9:2
43,10:2
43,11:4
43,13:1
43,14:2
43,15:5
43,16:4
43,17:3
43,18:1
43,19:1
43,20:2
43,21:2
43,22:3
43,23:2
43,24:1
43,25:2
43,26:4
43,27:5
43,28:1
43,29:4
43,31:2
43,32:3
43,35:5
43,36:1
43,38:3
43,39:1
43,40:4
43,41:4
43,42:5
43,44:1
43,45:2
44,37:3
44,43:1
44,45:1
45,37:2
45,43:2
45,44:1

<setup times backward>
1,1:9
1,2:6
1,4:8
1,6:11
1,8:12
1,10:11
1,11:13
1,12:10
1,13:8
1,15:14
1,16:13
1,18:10
1,19:8
1,20:7
1,21:7
1,22:12
1,23:7
1,24:10
1,37:13
1,39:10
1,43:9
2,1:12
2,2:9
2,3:14
2,5:11
2,7:12
2,9:10
2,11:16
2,12:13
2,13:11
2,15:17
2,16:16
2,18:13
2,19:11
2,20:10
2,21:10
2,22:15
2,23:10
2,24:13
2,37:16
2,39:13
2,43:12
3,1:7
3,2:4
3,3:9
3,4:6
3,6:9
3,7:7
3,8:10
3,10:9
3,11:11
3,12:8
3,13:6
3,14:5
3,15:12
3,16:11
3,17:4
3,18:8
3,19:6
3,20:5
3,21:5
3,22:10
3,23:5
3,24:8
3,25:9
3,26:11
3,27:12
3,28:6
3,29:11
3,30:7
3,31:5
3,32:4
3,33:7
3,34:7
3,35:12
3,36:6
3,37:11
3,38:4
3,39:8
3,40:11
3,43:7
4,1:10
4,2:7
4,3:12
4,4:9
4,5:9
4,7:10
4,8:13
4,9:8
4,11:14
4,12:11
4,13:9
4,14:8
4,15:15
4,16:14
4,17:7
4,18:11
4,19:9
4,20:8
4,21:8
4,22:13
4,23:8
4,24:11
4,25:12
4,26:14
4,27:15
4,28:9
4,29:14
4,30:10
4,31:8
4,32:7
4,33:10
4,34:10
4,35:15
4,36:9
4,37:14
4,38:7
4,39:11
4,40:14
4,43:10
5,1:10
5,2:7
5,3:12
5,4:9
5,5:9
5,6:12
5,7:10
5,8:13
5,10:12
5,11:14
5,12:11
5,13:9
5,14:8
5,15:15
5,16:14
5,17:7
5,18:11
5,19:9
5,20:8
5,21:8
5,22:13
5,23:8
5,24:11
5,25:12
5,26:14
5,27:15
5,28:9
5,29:14
5,30:10
5,31:8
5,32:7
5,33:10
5,34:10
5,35:15
5,36:9
5,37:14
5,38:7
5,39:11
5,40:14
5,43:10
6,1:7
6,2:4
6,3:9
6,4:6
6,5:6
6,6:9
6,7:7
6,8:10
6,9:5
6,11:11
6,12:8
6,13:6
6,14:5
6,15:12
6,16:11
6,17:4
6,18:8
6,19:6
6,20:5
6,21:5
6,22:10
6,23:5
6,24:8
6,25:9
6,26:11
6,27:12
6,28:6
6,29:11
6,30:7
6,31:5
6,32:4
6,33:7
6,34:7
6,35:12
6,36:6
6,37:11
6,38:4
6,39:8
6,40:11
6,43:7
7,1:9
7,2:6
7,3:11
7,4:8
7,5:8
7,6:11
7,7:9
7,8:12
7,10:11
7,11:13
7,12:10
7,13:8
7,15:14
7,16:13
7,18:10
7,19:8
7,20:7
7,21:7
7,22:12
7,23:7
7,24:10
7,37:13
7,39:10
7,43:9
8,1:6
8,2:3
8,3:8
8,4:5
8,5:5
8,6:8
8,7:6
8,8:9
8,9:4
8,11:10
8,12:7
8,13:5
8,15:11
8,16:10
8,18:7
8,19:5
8,20:4
8,21:4
8,22:9
8,23:4
8,24:7
8,37:10
8,39:7
8,43:6
9,1:11
9,2:8
9,3:13
9,4:10
9,5:10
9,6:13
9,7:11
9,8:14
9,9:9
9,10:13
9,11:15
9,12:12
9,13:10
9,14:9
9,15:16
9,16:15
9,17:8
9,18:12
9,19:10
9,20:9
9,21:9
9,22:14
9,23:9
9,24:12
9,25:13
9,26:15
9,27:16
9,28:10
9,29:15
9,30:11
9,31:9
9,32:8
9,33:11
9,34:11
9,35:16
9,36:10
9,37:15
9,38:8
9,39:12
9,40:15
9,43:11
10,1:7
10,2:4
10,3:9
10,4:6
10,5:6
10,6:9
10,7:7
10,8:10
10,9:5
10,10:9
10,11:11
10,12:8
10,13:6
10,14:5
10,15:12
10,16:11
10,17:4
10,18:8
10,19:6
10,20:5
10,21:5
10,22:10
10,23:5
10,24:8
10,25:9
10,26:11
10,27:12
10,28:6
10,29:11
10,30:7
10,31:5
10,32:4
10,33:7
10,34:7
10,35:12
10,36:6
10,37:11
10,38:4
10,39:8
10,40:11
10,43:7
11,1:5
11,2:2
11,3:7
11,4:4
11,5:4
11,6:7
11,7:5
11,8:8
11,9:3
11,10:7
11,11:9
11,12:6
11,37:9
11,39:6
11,43:5
12,1:8
12,2:5
12,3:10
12,4:7
12,5:7
12,6:10
12,7:8
12,8:11
12,9:6
12,10:10
12,11:12
12,12:9
12,39:9
13,1:10
13,2:7
13,3:12
13,4:9
13,5:9
13,6:12
13,7:10
13,8:13
13,9:8
13,10:12
13,11:14
13,12:11
13,13:9
13,37:14
13,39:11
13,43:10
14,1:11
14,2:8
14,3:13
14,4:10
14,5:10
14,6:13
14,7:11
14,8:14
14,9:9
14,10:13
14,11:15
14,12:12
14,13:10
14,14:9
14,15:16
14,16:15
14,18:12
14,19:10
14,20:9
14,21:9
14,22:14
14,23:9
14,24:12
14,37:15
14,39:12
14,43:11
15,1:4
15,2:1
15,3:6
15,4:3
15,5:3
15,6:6
15,7:4
15,8:7
15,9:2
15,10:6
15,11:8
15,12:5
15,13:3
15,14:2
15,15:9
15,17:1
15,25:6
15,26:8
15,27:9
15,29:8
15,30:4
15,31:2
15,32:1
15,37:8
15,39:5
15,43:4
16,1:5
16,2:2
16,3:7
16,4:4
16,5:4
16,6:7
16,7:5
16,8:8
16,9:3
16,10:7
16,11:9
16,12:6
16,13:4
16,14:3
16,15:10
16,16:9
16,17:2
16,18:6
16,23:3
16,24:6
16,25:7
16,26:9
16,27:10
16,29:9
16,30:5
16,31:3
16,32:2
16,37:9
16,39:6
16,43:5
17,1:12
17,2:9
17,3:14
17,4:11
17,5:11
17,6:14
17,7:12
17,8:15
17,9:10
17,10:14
17,11:16
17,12:13
17,13:11
17,14:10
17,15:17
17,16:16
17,17:9
17,18:13
17,19:11
17,20:10
17,21:10
17,22:15
17,23:10
17,24:13
17,25:14
17,29:16
17,30:12
17,31:10
17,32:9
17,37:16
17,39:13
17,43:12
18,1:8
18,2:5
18,3:10
18,4:7
18,5:7
18,6:10
18,7:8
18,8:11
18,9:6
18,10:10
18,11:12
18,12:9
18,13:7
18,14:6
18,15:13
18,16:12
18,17:5
18,18:9
18,23:6
18,24:9
18,25:10
18,26:12
18,27:13
18,29:12
18,30:8
18,31:6
18,32:5
18,37:12
18,39:9
18,43:8
19,1:10
19,2:7
19,3:12
19,4:9
19,5:9
19,6:12
19,7:10
19,8:13
19,9:8
19,10:12
19,11:14
19,12:11
19,13:9
19,14:8
19,15:15
19,16:14
19,17:7
19,18:11
19,19:9
19,23:8
19,24:11
19,25:12
19,26:14
19,27:15
19,29:14
19,30:10
19,31:8
19,32:7
19,37:14
19,39:11
19,43:10
20,1:11
20,2:8
20,3:13
20,4:10
20,5:10
20,6:13
20,7:11
20,8:14
20,9:9
20,10:13
20,11:15
20,12:12
20,13:10
20,14:9
20,15:16
20,16:15
20,17:8
20,18:12
20,19:10
20,20:9
20,23:9
20,24:12
20,25:13
20,26:15
20,27:16
20,29:15
20,30:11
20,31:9
20,32:8
20,33:11
20,34:11
20,35:16
20,36:10
20,37:15
20,39:12
20,43:11
21,1:11
21,2:8
21,3:13
21,4:10
21,5:10
21,6:13
21,7:11
21,8:14
21,9:9
21,10:13
21,11:15
21,12:12
21,13:10
21,14:9
21,15:16
21,16:15
21,17:8
21,18:12
21,19:10
21,20:9
21,21:9
21,23:9
21,24:12
21,25:13
21,26:15
21,27:16
21,29:15
21,30:11
21,31:9
21,32:8
21,33:11
21,34:11
21,35:16
21,36:10
21,37:15
21,39:12
21,43:11
22,1:6
22,2:3
22,3:8
22,4:5
22,5:5
22,6:8
22,7:6
22,8:9
22,9:4
22,10:8
22,11:10
22,12:7
22,13:5
22,14:4
22,15:11
22,16:10
22,17:3
22,18:7
22,19:5
22,20:4
22,21:4
22,22:9
22,23:4
22,24:7
22,25:8
22,26:10
22,27:11
22,29:10
22,30:6
22,31:4
22,32:3
22,33:6
22,34:6
22,35:11
22,36:5
22,37:10
22,39:7
22,43:6
23,1:11
23,2:8
23,3:13
23,4:10
23,5:10
23,6:13
23,7:11
23,8:14
23,9:9
23,10:13
23,11:15
23,12:12
23,13:10
23,14:9
23,15:16
23,16:15
23,17:8
23,18:12
23,19:10
23,20:9
23,21:9
23,22:14
23,23:9
23,24:12
23,25:13
23,26:15
23,27:16
23,28:10
23,29:15
23,30:11
23,31:9
23,32:8
23,37:15
23,39:12
23,43:11
24,1:8
24,2:5
24,3:10
24,4:7
24,5:7
24,6:10
24,7:8
24,8:11
24,9:6
24,10:10
24,11:12
24,12:9
24,13:7
24,14:6
24,15:13
24,16:12
24,17:5
24,18:9
24,19:7
24,20:6
24,21:6
24,22:11
24,23:6
24,24:9
24,25:10
24,26:12
24,27:13
24,28:7
24,29:12
24,30:8
24,31:6
24,32:5
24,37:12
24,39:9
24,43:8
25,1:7
25,2:4
25,3:9
25,4:6
25,5:6
25,6:9
25,7:7
25,8:10
25,9:5
25,10:9
25,11:11
25,12:8
25,13:6
25,14:5
25,15:12
25,16:11
25,17:4
25,18:8
25,19:6
25,20:5
25,21:5
25,22:10
25,23:5
25,24:8
25,25:9
25,27:12
25,28:6
25,29:11
25,30:7
25,31:5
25,32:4
25,33:7
25,34:7
25,35:12
25,36:6
25,37:11
25,39:8
25,43:7
26,1:5
26,2:2
26,3:7
26,4:4
26,5:4
26,6:7
26,7:5
26,8:8
26,9:3
26,10:7
26,11:9
26,12:6
26,13:4
26,14:3
26,15:10
26,16:9
26,17:2
26,18:6
26,19:4
26,20:3
26,21:3
26,22:8
26,23:3
26,24:6
26,25:7
26,26:9
26,27:10
26,28:4
26,29:9
26,30:5
26,31:3
26,32:2
26,33:5
26,34:5
26,35:10
26,36:4
26,37:9
26,39:6
26,43:5
27,1:4
27,2:1
27,3:6
27,4:3
27,5:3
27,6:6
27,7:4
27,8:7
27,9:2
27,10:6
27,11:8
27,12:5
27,13:3
27,14:2
27,15:9
27,16:8
27,17:1
27,18:5
27,19:3
27,20:2
27,21:2
27,22:7
27,23:2
27,24:5
27,25:6
27,26:8
27,27:9
27,29:8
27,30:4
27,31:2
27,32:1
27,37:8
27,39:5
27,43:4
28,1:10
28,2:7
28,3:12
28,4:9
28,5:9
28,6:12
28,7:10
28,8:13
28,9:8
28,10:12
28,11:14
28,12:11
28,13:9
28,14:8
28,15:15
28,16:14
28,17:7
28,18:11
28,19:9
28,20:8
28,21:8
28,22:13
28,23:8
28,24:11
28,25:12
28,26:14
28,27:15
28,28:9
28,29:14
28,30:10
28,31:8
28,32:7
28,33:10
28,34:10
28,35:15
28,36:9
28,37:14
28,39:11
28,43:10
29,1:5
29,2:2
29,3:7
29,4:4
29,5:4
29,6:7
29,7:5
29,8:8
29,9:3
29,10:7
29,11:9
29,12:6
29,13:4
29,14:3
29,15:10
29,16:9
29,17:2
29,18:6
29,19:4
29,20:3
29,21:3
29,22:8
29,23:3
29,24:6
29,25:7
29,26:9
29,27:10
29,28:4
29,29:9
29,30:5
29,31:3
29,32:2
29,33:5
29,34:5
29,35:10
29,36:4
29,37:9
29,38:2
29,39:6
29,40:9
29,43:5
30,1:9
30,2:6
30,3:11
30,4:8
30,5:8
30,6:11
30,7:9
30,8:12
30,9:7
30,10:11
30,11:13
30,12:10
30,13:8
30,14:7
30,15:14
30,16:13
30,17:6
30,18:10
30,19:8
30,20:7
30,21:7
30,22:12
30,23:7
30,24:10
30,25:11
30,26:13
30,27:14
30,28:8
30,29:13
30,30:9
30,31:7
30,32:6
30,33:9
30,34:9
30,35:14
30,36:8
30,37:13
30,38:6
30,39:10
30,40:13
30,43:9
31,1:11
31,2:8
31,3:13
31,4:10
31,5:10
31,6:13
31,7:11
31,8:14
31,9:9
31,10:13
31,11:15
31,12:12
31,13:10
31,14:9
31,15:16
31,16:15
31,17:8
31,18:12
31,19:10
31,20:9
31,21:9
31,22:14
31,23:9
31,24:12
31,25:13
31,26:15
31,27:16
31,28:10
31,29:15
31,30:11
31,31:9
31,32:8
31,33:11
31,34:11
31,35:16
31,36:10
31,37:15
31,38:8
31,39:12
31,40:15
31,43:11
32,1:12
32,2:9
32,3:14
32,4:11
32,5:11
32,6:14
32,7:12
32,8:15
32,9:10
32,10:14
32,11:16
32,12:13
32,13:11
32,14:10
32,15:17
32,16:16
32,17:9
32,18:13
32,19:11
32,20:10
32,21:10
32,22:15
32,23:10
32,24:13
32,25:14
32,26:16
32,27:17
32,28:11
32,29:16
32,30:12
32,31:10
32,32:9
32,33:12
32,34:12
32,35:17
32,36:11
32,37:16
32,38:9
32,39:13
32,40:16
32,43:12
33,1:9
33,2:6
33,3:11
33,4:8
33,5:8
33,6:11
33,7:9
33,8:12
33,9:7
33,10:11
33,11:13
33,12:10
33,13:8
33,14:7
33,15:14
33,16:13
33,17:6
33,18:10
33,19:8
33,20:7
33,21:7
33,22:12
33,23:7
33,24:10
33,25:11
33,26:13
33,27:14
33,28:8
33,29:13
33,30:9
33,31:7
33,32:6
33,33:9
33,37:13
33,39:10
33,43:9
34,1:9
34,2:6
34,3:11
34,4:8
34,5:8
34,6:11
34,7:9
34,8:12
34,9:7
34,10:11
34,11:13
34,12:10
34,13:8
34,14:7
34,15:14
34,16:13
34,17:6
34,18:10
34,19:8
34,20:7
34,21:7
34,22:12
34,23:7
34,24:10
34,25:11
34,26:13
34,27:14
34,28:8
34,29:13
34,30:9
34,31:7
34,32:6
34,33:9
34,34:9
34,35:14
34,36:8
34,37:13
34,39:10
34,43:9
35,1:4
35,2:1
35,3:6
35,4:3
35,5:3
35,6:6
35,7:4
35,8:7
35,9:2
35,10:6
35,11:8
35,12:5
35,13:3
35,14:2
35,15:9
35,16:8
35,17:1
35,18:5
35,19:3
35,20:2
35,21:2
35,22:7
35,23:2
35,24:5
35,25:6
35,26:8
35,27:9
35,28:3
35,29:8
35,30:4
35,31:2
35,32:1
35,33:4
35,34:4
35,35:9
35,36:3
35,37:8
35,38:1
35,39:5
35,43:4
36,1:10
36,2:7
36,3:12
36,4:9
36,5:9
36,6:12
36,7:10
36,8:13
36,9:8
36,10:12
36,11:14
36,12:11
36,13:9
36,14:8
36,15:15
36,16:14
36,17:7
36,18:11
36,19:9
36,20:8
36,21:8
36,22:13
36,23:8
36,24:11
36,25:12
36,26:14
36,27:15
36,28:9
36,29:14
36,30:10
36,31:8
36,32:7
36,33:10
36,34:10
36,35:15
36,36:9
36,37:14
36,39:11
36,43:10
37,1:5
37,2:2
37,3:7
37,4:4
37,5:4
37,6:7
37,7:5
37,8:8
37,9:3
37,10:7
37,11:9
37,12:6
37,13:4
37,14:3
37,15:10
37,16:9
37,17:2
37,18:6
37,19:4
37,20:3
37,21:3
37,22:8
37,23:3
37,24:6
37,25:7
37,26:9
37,27:10
37,28:4
37,29:9
37,30:5
37,31:3
37,32:2
37,33:5
37,34:5
37,35:10
37,36:4
37,37:9
37,38:2
37,39:6
37,40:9
37,41:9
37,42:10
37,44:6
37,45:7
38,1:12
38,2:9
38,3:14
38,4:11
38,5:11
38,6:14
38,7:12
38,8:15
38,9:10
38,10:14
38,11:16
38,12:13
38,13:11
38,14:10
38,15:17
38,16:16
38,17:9
38,18:13
38,19:11
38,20:10
38,21:10
38,22:15
38,23:10
38,24:13
38,25:14
38,26:16
38,27:17
38,28:11
38,29:16
38,30:12
38,31:10
38,32:9
38,33:12
38,34:12
38,35:17
38,36:11
38,37:16
38,38:9
38,39:13
38,43:12
39,1:8
39,2:5
39,3:10
39,4:7
39,5:7
39,6:10
39,7:8
39,8:11
39,9:6
39,10:10
39,11:12
39,12:9
39,13:7
39,14:6
39,15:13
39,16:12
39,17:5
39,18:9
39,19:7
39,20:6
39,21:6
39,22:11
39,23:6
39,24:9
39,25:10
39,26:12
39,27:13
39,28:7
39,29:12
39,30:8
39,31:6
39,32:5
39,33:8
39,34:8
39,35:13
39,36:7
39,37:12
39,38:5
39,39:9
39,40:12
39,43:8
40,1:5
40,2:2
40,3:7
40,4:4
40,5:4
40,6:7
40,7:5
40,8:8
40,9:3
40,10:7
40,11:9
40,12:6
40,13:4
40,14:3
40,15:10
40,16:9
40,17:2
40,18:6
40,19:4
40,20:3
40,21:3
40,22:8
40,23:3
40,24:6
40,25:7
40,26:9
40,27:10
40,28:4
40,29:9
40,30:5
40,31:3
40,32:2
40,33:5
40,34:5
40,35:10
40,36:4
40,37:9
40,38:2
40,39:6
40,40:9
40,43:5
41,1:5
41,2:2
41,3:7
41,4:4
41,5:4
41,6:7
41,7:5
41,8:8
41,9:3
41,10:7
41,11:9
41,12:6
41,13:4
41,14:3
41,15:10
41,16:9
41,17:2
41,18:6
41,19:4
41,20:3
41,21:3
41,22:8
41,23:3
41,24:6
41,25:7
41,26:9
41,27:10
41,28:4
41,29:9
41,30:5
41,31:3
41,32:2
41,33:5
41,34:5
41,35:10
41,36:4
41,37:9
41,38:2
41,39:6
41,40:9
41,41:9
41,43:5
42,1:4
42,2:1
42,3:6
42,4:3
42,5:3
42,6:6
42,7:4
42,8:7
42,9:2
42,10:6
42,11:8
42,12:5
42,13:3
42,14:2
42,15:9
42,16:8
42,17:1
42,18:5
42,19:3
42,20:2
42,21:2
42,22:7
42,23:2
42,24:5
42,25:6
42,26:8
42,27:9
42,28:3
42,29:8
42,30:4
42,31:2
42,32:1
42,33:4
42,34:4
42,35:9
42,36:3
42,37:8
42,38:1
42,39:5
42,40:8
42,41:8
42,42:9
42,43:4
43,1:9
43,2:6
43,3:11
43,4:8
43,5:8
43,6:11
43,7:9
43,8:12
43,9:7
43,10:11
43,11:13
43,12:10
43,13:8
43,14:7
43,15:14
43,16:13
43,17:6
43,18:10
43,19:8
43,20:7
43,21:7
43,22:12
43,23:7
43,24:10
43,25:11
43,26:13
43,27:14
43,28:8
43,29:13
43,30:9
43,31:7
43,32:6
43,33:9
43,34:9
43,35:14
43,36:8
43,37:13
43,38:6
43,39:10
43,40:13
43,41:13
43,42:14
43,43:9
43,44:10
43,45:11
44,1:8
44,2:5
44,3:10
44,4:7
44,5:7
44,6:10
44,7:8
44,8:11
44,9:6
44,10:10
44,11:12
44,12:9
44,13:7
44,14:6
44,15:13
44,16:12
44,17:5
44,18:9
44,19:7
44,20:6
44,21:6
44,22:11
44,23:6
44,24:9
44,25:10
44,26:12
44,27:13
44,28:7
44,29:12
44,30:8
44,31:6
44,32:5
44,33:8
44,34:8
44,35:13
44,36:7
44,37:12
44,38:5
44,39:9
44,40:12
44,41:12
44,42:13
44,43:8
44,44:9
44,45:10
45,1:7
45,2:4
45,3:9
45,4:6
45,5:6
45,6:9
45,7:7
45,8:10
45,9:5
45,10:9
45,11:11
45,12:8
45,13:6
45,14:5
45,15:12
45,16:11
45,17:4
45,18:8
45,19:6
45,20:5
45,21:5
45,22:10
45,23:5
45,24:8
45,25:9
45,26:11
45,27:12
45,28:6
45,29:11
45,30:7
45,31:5
45,32:4
45,33:7
45,34:7
45,35:12
45,36:6
45,37:11
45,38:4
45,39:8
45,40:11
45,41:11
45,42:12
45,43:7
45,44:8
45,45:9

<end>

<optimal SALBP-1 value>
8


<rand seed>
467321153

